 &control
    calculation='bands',
    prefix='SrVO3',
    pseudo_dir = './',
    outdir='./tmp/',
    wf_collect=.true.,
    disk_io='low'
    verbosity='high'
/          
 &system
    ibrav=1,celldm(1)=7.25277176,
    nat= 5,ntyp=3,
    ecutwfc=35.0,
    occupations='smearing'
    degauss=0.01
    nosym=.true.
    noinv=.true.
    nbnd=25
/ 
 &electrons
/  
ATOMIC_SPECIES
 V   23.0  V.pbe-sp-van.UPF
 Sr  38.0  Sr.pbe-sp-van.UPF
 O    8.0  O.pbe-rrkjus.UPF
ATOMIC_POSITIONS {alat}
V  0.0 0.0 0.0 
O  0.5 0.0 0.0 
O  0.0 0.5 0.0 
O  0.0 0.0 0.5 
Sr 0.5 0.5 0.5 
K_POINTS {automatic} 
12 12 12 0 0 0 
